<number of tasks>
58

<cycle time>
82

<task times>
1 10
2 53
3 41
4 36
5 35
6 17
7 34
8 23
9 14
10 52
11 33
12 34
13 12
14 52
15 12
16 33
17 44
18 7
19 15
20 13
21 29
22 37
23 43
24 23
25 24
26 9
27 16
28 12
29 26
30 22
31 51
32 47
33 34
34 23
35 12
36 52
37 12
38 33
39 44
40 7
41 15
42 13
43 29
44 37
45 43
46 23
47 24
48 9
49 16
50 12
51 26
52 12
53 52
54 12
55 33
56 44
57 7
58 15

<precedence relations>
1,9
2,25
3,21
3,22
4,10
5,36
6,23
6,24
7,43
8,44
9,11
11,13
11,14
11,15
12,17
13,17
14,17
15,17
16,18
17,20
18,19
19,23
20,21
20,25
21,26
21,44
22,27
23,31
24,31
25,38
26,29
27,30
28,32
28,33
29,31
30,34
31,36
32,45
33,35
34,36
35,43
36,37
36,38
37,39
37,40
37,41
38,52
39,43
40,43
41,42
42,43
43,45
44,45
45,46
45,48
45,49
46,47
46,50
47,51
48,55
49,58
50,58
51,52
52,53
53,54
54,55
54,56
55,57
56,57
57,58

<setup times forward>
1,2:1
1,3:3
1,6:1
1,7:2
1,8:2
1,9:2
1,10:1
1,12:2
1,16:3
1,18:3
1,19:1
1,22:2
1,23:2
1,24:2
1,28:1
1,33:2
1,34:2
1,35:1
2,1:1
2,3:2
2,4:1
2,5:1
2,7:1
2,8:1
2,9:1
2,11:1
2,12:1
2,13:2
2,14:2
2,15:2
2,16:2
2,17:1
2,18:2
2,20:3
2,21:3
2,22:1
2,23:1
2,24:1
2,25:1
2,26:3
2,27:1
2,30:1
2,32:1
2,33:1
2,34:3
2,36:1
2,37:2
2,39:3
2,40:3
2,41:2
2,42:2
2,43:3
2,44:2
2,45:3
2,46:2
2,47:2
2,48:1
2,49:1
2,50:2
2,51:2
3,1:3
3,2:2
3,4:3
3,5:3
3,6:2
3,7:1
3,8:1
3,9:1
3,10:2
3,11:3
3,12:1
3,13:4
3,14:4
3,15:4
3,17:3
3,19:2
3,20:5
3,21:5
3,22:1
3,23:1
3,24:1
3,25:1
3,28:2
3,32:3
3,33:1
3,35:2
4,2:1
4,3:3
4,6:1
4,7:2
4,8:2
4,9:2
4,10:1
4,12:2
4,13:1
4,14:1
4,15:1
4,16:3
4,18:3
4,19:1
4,20:2
4,21:2
4,22:2
4,23:2
4,24:2
4,25:2
4,26:2
4,28:1
4,29:1
4,31:1
4,33:2
4,34:2
4,35:1
4,36:2
4,37:3
4,38:2
4,39:2
4,40:2
4,41:3
4,42:3
4,43:2
4,44:3
4,45:2
4,46:3
4,47:3
4,48:2
4,49:2
4,50:3
4,51:3
4,54:2
4,55:2
4,56:3
4,57:3
4,58:3
5,2:1
5,3:3
5,6:1
5,7:2
5,8:2
5,9:2
5,10:1
5,12:2
5,13:1
5,14:1
5,15:1
5,16:3
5,18:3
5,19:1
5,20:2
5,21:2
5,22:2
5,23:2
5,24:2
5,25:2
5,26:2
5,28:1
5,29:1
5,31:1
5,33:2
5,34:2
5,35:1
5,36:2
5,44:3
6,1:1
6,3:2
6,4:1
6,5:1
6,7:1
6,8:1
6,9:1
6,11:1
6,12:1
6,13:2
6,14:2
6,15:2
6,16:2
6,17:1
6,18:2
6,20:3
6,21:3
6,22:1
6,23:1
6,24:1
6,25:1
6,26:3
6,27:1
6,30:1
6,32:1
6,33:1
6,34:3
6,44:2
7,1:2
7,2:1
7,3:1
7,4:2
7,5:2
7,6:1
7,10:1
7,11:2
7,13:3
7,14:3
7,15:3
7,16:1
7,17:2
7,18:1
7,19:1
7,20:4
7,21:4
7,26:4
7,27:2
7,28:1
7,29:1
7,30:2
7,31:1
7,32:2
7,34:4
7,35:1
7,37:1
7,38:4
7,39:4
7,40:4
7,41:1
7,42:1
7,43:4
7,44:1
8,1:2
8,2:1
8,3:1
8,4:2
8,5:2
8,6:1
8,10:1
8,11:2
8,13:3
8,14:3
8,15:3
8,16:1
8,17:2
8,18:1
8,19:1
8,20:4
8,21:4
8,26:4
8,27:2
8,28:1
8,29:1
8,30:2
8,31:1
8,32:2
8,34:4
8,35:1
8,37:1
8,38:4
8,39:4
8,40:4
8,41:1
8,42:1
8,43:4
8,44:1
9,2:1
9,3:1
9,4:2
9,5:2
9,6:1
9,10:1
9,11:2
9,16:1
9,18:1
9,19:1
9,27:2
9,28:1
9,30:2
9,32:2
9,34:4
9,35:1
10,1:1
10,3:2
10,5:1
10,7:1
10,8:1
10,9:1
10,11:1
10,12:1
10,13:2
10,14:2
10,15:2
10,16:2
10,17:1
10,18:2
10,20:3
10,21:3
10,22:1
10,23:1
10,24:1
10,25:1
10,26:3
10,27:1
10,30:1
10,32:1
10,33:1
10,34:3
10,36:1
10,37:2
10,38:3
10,39:3
10,40:3
10,41:2
10,42:2
10,43:3
10,44:2
10,45:3
10,46:2
10,47:2
10,48:1
10,49:1
10,50:2
10,51:2
10,52:1
10,53:1
10,54:1
10,55:1
10,56:2
10,57:2
10,58:2
11,2:1
11,3:3
11,6:1
11,7:2
11,8:2
11,10:1
11,12:2
11,13:1
11,14:1
11,15:1
11,16:3
11,18:3
11,19:1
11,22:2
11,23:2
11,24:2
11,28:1
11,33:2
11,34:2
11,35:1
12,1:2
12,2:1
12,3:1
12,4:2
12,5:2
12,6:1
12,10:1
12,11:2
12,13:3
12,14:3
12,15:3
12,16:1
12,17:2
12,18:1
12,19:1
12,27:2
12,28:1
12,30:2
12,32:2
12,34:4
12,35:1
13,2:2
13,3:4
13,4:1
13,5:1
13,6:2
13,7:3
13,8:3
13,10:2
13,12:3
13,16:4
13,17:1
13,18:4
13,19:2
13,22:3
13,23:3
13,24:3
13,27:1
13,28:2
13,30:1
13,32:1
13,33:3
13,34:1
13,35:2
14,2:2
14,3:4
14,4:1
14,5:1
14,6:2
14,7:3
14,8:3
14,10:2
14,12:3
14,16:4
14,17:1
14,18:4
14,19:2
14,22:3
14,23:3
14,24:3
14,27:1
14,28:2
14,30:1
14,32:1
14,33:3
14,34:1
14,35:2
15,2:2
15,3:4
15,4:1
15,5:1
15,6:2
15,7:3
15,8:3
15,10:2
15,12:3
15,16:4
15,17:1
15,18:4
15,19:2
15,22:3
15,23:3
15,24:3
15,27:1
15,28:2
15,30:1
15,32:1
15,33:3
15,34:1
15,35:2
16,1:3
16,2:2
16,4:3
16,5:3
16,6:2
16,7:1
16,8:1
16,9:1
16,10:2
16,11:3
16,12:1
16,13:4
16,14:4
16,15:4
16,17:3
16,20:5
16,21:5
16,22:1
16,24:1
16,25:1
16,26:5
16,27:3
16,28:2
16,29:2
16,30:3
16,32:3
16,33:1
16,34:5
16,35:2
17,2:1
17,3:3
17,6:1
17,7:2
17,8:2
17,10:1
17,16:3
17,18:3
17,19:1
17,20:2
17,22:2
17,23:2
17,24:2
17,28:1
17,33:2
17,34:2
17,35:1
18,1:3
18,2:2
18,4:3
18,5:3
18,6:2
18,7:1
18,8:1
18,9:1
18,10:2
18,11:3
18,12:1
18,13:4
18,14:4
18,15:4
18,17:3
18,19:2
18,20:5
18,21:5
18,22:1
18,24:1
18,25:1
18,26:5
18,27:3
18,28:2
18,29:2
18,30:3
18,32:3
18,33:1
18,34:5
18,35:2
19,1:1
19,3:2
19,4:1
19,5:1
19,7:1
19,8:1
19,9:1
19,11:1
19,12:1
19,13:2
19,14:2
19,15:2
19,17:1
19,20:3
19,21:3
19,22:1
19,23:1
19,24:1
19,25:1
19,26:3
19,27:1
19,30:1
19,32:1
19,33:1
19,34:3
19,44:2
20,2:3
20,3:5
20,4:2
20,5:2
20,6:3
20,7:4
20,8:4
20,10:3
20,16:5
20,18:5
20,19:3
20,22:4
20,23:4
20,24:4
20,25:4
20,27:2
20,28:3
20,30:2
20,32:2
20,33:4
20,35:3
21,2:3
21,4:2
21,5:2
21,6:3
21,7:4
21,8:4
21,10:3
21,16:5
21,18:5
21,19:3
21,22:4
21,23:4
21,24:4
21,25:4
21,27:2
21,28:3
21,30:2
21,32:2
21,33:4
21,35:3
21,44:5
22,1:2
22,2:1
22,4:2
22,5:2
22,6:1
22,10:1
22,11:2
22,13:3
22,14:3
22,15:3
22,16:1
22,17:2
22,18:1
22,19:1
22,20:4
22,21:4
22,26:4
22,27:2
22,28:1
22,29:1
22,31:1
22,32:2
22,35:1
22,44:1
23,1:2
23,2:1
23,3:1
23,4:2
23,5:2
23,10:1
23,11:2
23,13:3
23,14:3
23,15:3
23,17:2
23,20:4
23,21:4
23,26:4
23,27:2
23,28:1
23,29:1
23,30:2
23,31:1
23,32:2
23,34:4
23,35:1
23,44:1
24,1:2
24,2:1
24,3:1
24,4:2
24,5:2
24,10:1
24,11:2
24,13:3
24,14:3
24,15:3
24,16:1
24,17:2
24,18:1
24,19:1
24,20:4
24,21:4
24,26:4
24,27:2
24,28:1
24,29:1
24,30:2
24,31:1
24,32:2
24,34:4
24,35:1
24,44:1
25,3:1
25,4:2
25,5:2
25,6:1
25,10:1
25,16:1
25,18:1
25,19:1
25,21:4
25,26:4
25,27:2
25,28:1
25,29:1
25,30:2
25,31:1
25,32:2
25,34:4
25,35:1
25,37:1
25,38:4
25,39:4
25,40:4
25,41:1
25,42:1
25,43:4
25,44:1
25,45:4
25,46:1
25,47:1
25,50:1
25,51:1
26,2:3
26,4:2
26,5:2
26,6:3
26,7:4
26,8:4
26,10:3
26,16:5
26,18:5
26,19:3
26,22:4
26,23:4
26,24:4
26,25:4
26,27:2
26,28:3
26,29:3
26,30:2
26,32:2
26,33:4
26,35:3
26,44:5
27,2:1
27,6:1
27,7:2
27,8:2
27,9:2
27,10:1
27,12:2
27,13:1
27,14:1
27,15:1
27,16:3
27,18:3
27,19:1
27,20:2
27,21:2
27,23:2
27,24:2
27,25:2
27,26:2
27,28:1
27,29:1
27,31:1
27,33:2
27,35:1
27,44:3
28,1:1
28,3:2
28,4:1
28,5:1
28,7:1
28,8:1
28,9:1
28,11:1
28,12:1
28,13:2
28,14:2
28,15:2
28,16:2
28,17:1
28,18:2
28,20:3
28,21:3
28,22:1
28,23:1
28,24:1
28,25:1
28,26:3
28,27:1
28,30:1
28,32:1
28,33:1
28,34:3
28,36:1
28,37:2
28,38:3
28,39:3
28,40:3
28,41:2
28,42:2
28,44:2
29,4:1
29,5:1
29,7:1
29,8:1
29,16:2
29,18:2
29,22:1
29,23:1
29,24:1
29,25:1
29,27:1
29,30:1
29,32:1
29,33:1
29,34:3
29,44:2
30,2:1
30,6:1
30,7:2
30,8:2
30,9:2
30,10:1
30,12:2
30,13:1
30,14:1
30,15:1
30,16:3
30,18:3
30,19:1
30,20:2
30,21:2
30,23:2
30,24:2
30,25:2
30,26:2
30,28:1
30,29:1
30,31:1
30,33:2
30,34:2
30,35:1
30,44:3
31,4:1
31,5:1
31,7:1
31,8:1
31,22:1
31,25:1
31,27:1
31,30:1
31,32:1
31,33:1
31,34:3
31,36:1
31,44:2
32,2:1
32,3:3
32,6:1
32,7:2
32,8:2
32,9:2
32,10:1
32,12:2
32,13:1
32,14:1
32,15:1
32,16:3
32,18:3
32,19:1
32,20:2
32,21:2
32,22:2
32,23:2
32,24:2
32,25:2
32,26:2
32,29:1
32,31:1
32,33:2
32,34:2
32,35:1
32,36:2
32,37:3
32,38:2
32,39:2
32,40:2
32,41:3
32,42:3
32,43:2
32,44:3
32,45:2
33,1:2
33,2:1
33,3:1
33,4:2
33,5:2
33,6:1
33,10:1
33,11:2
33,13:3
33,14:3
33,15:3
33,16:1
33,17:2
33,18:1
33,19:1
33,20:4
33,21:4
33,26:4
33,27:2
33,29:1
33,30:2
33,31:1
33,32:2
33,34:4
33,35:1
33,37:1
33,38:4
33,39:4
33,40:4
33,41:1
33,42:1
33,44:1
34,1:2
34,2:3
34,4:2
34,5:2
34,6:3
34,7:4
34,8:4
34,9:4
34,10:3
34,11:2
34,12:4
34,13:1
34,14:1
34,15:1
34,16:5
34,17:2
34,18:5
34,19:3
34,23:4
34,24:4
34,25:4
34,28:3
34,29:3
34,31:3
34,32:2
34,33:4
34,35:3
34,36:4
34,44:5
35,1:1
35,3:2
35,4:1
35,5:1
35,7:1
35,8:1
35,9:1
35,11:1
35,12:1
35,13:2
35,14:2
35,15:2
35,16:2
35,17:1
35,18:2
35,20:3
35,21:3
35,22:1
35,23:1
35,24:1
35,25:1
35,26:3
35,27:1
35,30:1
35,32:1
35,34:3
35,36:1
35,37:2
35,38:3
35,39:3
35,40:3
35,41:2
35,42:2
35,43:3
35,44:2
36,2:1
36,4:2
36,10:1
36,28:1
36,32:2
36,35:1
36,37:1
36,38:4
36,44:1
37,2:2
37,4:3
37,7:1
37,8:1
37,10:2
37,25:1
37,28:2
37,32:3
37,33:1
37,35:2
37,38:5
37,39:5
37,40:5
38,4:2
38,7:4
38,8:4
38,10:3
38,28:3
38,32:2
38,33:4
38,35:3
38,37:5
38,41:5
38,42:5
38,44:5
38,46:5
38,47:5
38,48:4
38,49:4
38,50:5
38,51:5
38,52:2
39,2:3
39,4:2
39,7:4
39,8:4
39,10:3
39,25:4
39,28:3
39,32:2
39,33:4
39,35:3
39,41:5
39,42:5
39,44:5
40,2:3
40,4:2
40,7:4
40,8:4
40,10:3
40,25:4
40,28:3
40,32:2
40,33:4
40,35:3
40,41:5
40,42:5
40,44:5
41,2:2
41,4:3
41,7:1
41,8:1
41,10:2
41,25:1
41,28:2
41,32:3
41,33:1
41,35:2
41,38:5
41,39:5
41,40:5
42,2:2
42,4:3
42,7:1
42,8:1
42,10:2
42,25:1
42,28:2
42,32:3
42,33:1
42,35:2
42,38:5
42,39:5
42,40:5
42,43:5
43,2:3
43,4:2
43,8:4
43,10:3
43,25:4
43,32:2
43,44:5
44,2:2
44,4:3
44,5:3
44,6:2
44,7:1
44,10:2
44,19:2
44,22:1
44,23:1
44,24:1
44,25:1
44,26:5
44,27:3
44,28:2
44,29:2
44,30:3
44,31:2
44,32:3
44,33:1
44,34:5
44,35:2
44,36:1
44,38:5
44,39:5
44,40:5
44,43:5
44,45:5
45,2:3
45,4:2
45,10:3
45,25:4
45,46:5
45,48:4
45,49:4
46,2:2
46,4:3
46,10:2
46,25:1
46,38:5
46,48:1
46,49:1
47,2:2
47,4:3
47,10:2
47,25:1
47,38:5
47,48:1
47,49:1
48,2:1
48,4:2
48,10:1
48,38:4
48,46:1
48,47:1
48,50:1
48,51:1
48,52:2
48,53:2
48,56:1
49,2:1
49,4:2
49,10:1
49,38:4
49,46:1
49,47:1
49,50:1
49,51:1
49,52:2
49,53:2
49,56:1
49,57:1
49,58:1
50,2:2
50,4:3
50,10:2
50,25:1
50,38:5
50,48:1
50,49:1
50,52:3
50,53:3
50,54:1
50,55:1
51,2:2
51,4:3
51,10:2
51,25:1
51,38:5
51,48:1
51,49:1
51,52:3
52,10:1
52,48:2
52,49:2
52,50:3
53,10:1
53,48:2
53,49:2
53,50:3
53,54:2
54,4:2
54,10:1
54,50:1
54,56:1
55,4:2
55,10:1
55,50:1
55,56:1
55,57:1
56,4:3
56,10:2
56,48:1
56,49:1
56,55:1
57,4:3
57,10:2
57,49:1
58,4:3
58,10:2

<setup times backward>
1,34:2
2,1:1
2,4:1
2,5:1
2,11:1
2,13:2
2,14:2
2,15:2
2,17:1
2,20:3
2,21:3
2,26:3
2,27:1
2,30:1
2,32:1
2,34:3
2,39:3
2,40:3
2,43:3
2,45:3
3,1:3
3,2:2
3,4:3
3,5:3
3,6:2
3,7:1
3,8:1
3,9:1
3,10:2
3,11:3
3,12:1
3,13:4
3,14:4
3,15:4
3,17:3
3,19:2
3,20:5
3,23:1
3,24:1
3,25:1
3,28:2
3,32:3
3,33:1
3,35:2
4,13:1
4,14:1
4,15:1
4,20:2
4,21:2
4,26:2
4,34:2
4,38:2
4,39:2
4,40:2
4,43:2
4,45:2
5,13:1
5,14:1
5,15:1
5,20:2
5,21:2
5,26:2
5,34:2
6,1:1
6,4:1
6,5:1
6,11:1
6,13:2
6,14:2
6,15:2
6,17:1
6,20:3
6,21:3
6,26:3
6,27:1
6,30:1
6,32:1
6,34:3
7,1:2
7,2:1
7,4:2
7,5:2
7,6:1
7,10:1
7,11:2
7,13:3
7,14:3
7,15:3
7,17:2
7,19:1
7,20:4
7,21:4
7,26:4
7,27:2
7,28:1
7,29:1
7,30:2
7,31:1
7,32:2
7,34:4
7,35:1
7,38:4
7,39:4
7,40:4
8,1:2
8,2:1
8,4:2
8,5:2
8,6:1
8,10:1
8,11:2
8,13:3
8,14:3
8,15:3
8,17:2
8,19:1
8,20:4
8,21:4
8,26:4
8,27:2
8,28:1
8,29:1
8,30:2
8,31:1
8,32:2
8,34:4
8,35:1
8,38:4
8,39:4
8,40:4
8,43:4
9,1:2
9,2:1
9,4:2
9,5:2
9,6:1
9,10:1
9,19:1
9,27:2
9,28:1
9,30:2
9,32:2
9,34:4
9,35:1
10,1:1
10,4:1
10,5:1
10,11:1
10,13:2
10,14:2
10,15:2
10,17:1
10,20:3
10,21:3
10,26:3
10,27:1
10,30:1
10,32:1
10,34:3
10,38:3
10,39:3
10,40:3
10,43:3
10,45:3
10,52:1
10,53:1
11,34:2
12,1:2
12,2:1
12,4:2
12,5:2
12,6:1
12,10:1
12,11:2
12,13:3
12,14:3
12,15:3
12,19:1
12,27:2
12,28:1
12,30:2
12,32:2
12,34:4
12,35:1
13,34:1
14,34:1
15,34:1
16,1:3
16,2:2
16,4:3
16,5:3
16,6:2
16,7:1
16,8:1
16,9:1
16,10:2
16,11:3
16,12:1
16,13:4
16,14:4
16,15:4
16,17:3
16,20:5
16,21:5
16,22:1
16,24:1
16,25:1
16,26:5
16,27:3
16,28:2
16,29:2
16,30:3
16,32:3
16,33:1
16,34:5
16,35:2
17,13:1
17,14:1
17,15:1
17,34:2
18,1:3
18,2:2
18,4:3
18,5:3
18,6:2
18,7:1
18,8:1
18,9:1
18,10:2
18,11:3
18,12:1
18,13:4
18,14:4
18,15:4
18,17:3
18,20:5
18,21:5
18,22:1
18,24:1
18,25:1
18,26:5
18,27:3
18,28:2
18,29:2
18,30:3
18,32:3
18,33:1
18,34:5
18,35:2
19,1:1
19,4:1
19,5:1
19,11:1
19,13:2
19,14:2
19,15:2
19,17:1
19,20:3
19,21:3
19,26:3
19,27:1
19,30:1
19,32:1
19,34:3
22,1:2
22,2:1
22,4:2
22,5:2
22,6:1
22,10:1
22,11:2
22,13:3
22,14:3
22,15:3
22,17:2
22,19:1
22,20:4
22,21:4
22,26:4
22,28:1
22,29:1
22,31:1
22,32:2
22,35:1
23,1:2
23,2:1
23,4:2
23,5:2
23,6:1
23,10:1
23,11:2
23,13:3
23,14:3
23,15:3
23,17:2
23,19:1
23,20:4
23,21:4
23,26:4
23,27:2
23,28:1
23,29:1
23,30:2
23,32:2
23,34:4
23,35:1
24,1:2
24,2:1
24,4:2
24,5:2
24,6:1
24,10:1
24,11:2
24,13:3
24,14:3
24,15:3
24,17:2
24,19:1
24,20:4
24,21:4
24,26:4
24,27:2
24,28:1
24,29:1
24,30:2
24,32:2
24,34:4
24,35:1
25,1:2
25,2:1
25,4:2
25,5:2
25,6:1
25,10:1
25,11:2
25,13:3
25,14:3
25,15:3
25,17:2
25,19:1
25,20:4
25,21:4
25,26:4
25,27:2
25,28:1
25,29:1
25,30:2
25,31:1
25,32:2
25,34:4
25,35:1
25,39:4
25,40:4
25,43:4
25,45:4
27,13:1
27,14:1
27,15:1
27,20:2
27,21:2
27,26:2
28,1:1
28,4:1
28,5:1
28,11:1
28,13:2
28,14:2
28,15:2
28,17:1
28,20:3
28,21:3
28,26:3
28,27:1
28,30:1
28,34:3
28,38:3
28,39:3
28,40:3
29,1:1
29,4:1
29,5:1
29,11:1
29,13:2
29,14:2
29,15:2
29,17:1
29,20:3
29,21:3
29,26:3
29,27:1
29,30:1
29,32:1
29,34:3
30,13:1
30,14:1
30,15:1
30,20:2
30,21:2
30,26:2
31,1:1
31,4:1
31,5:1
31,11:1
31,13:2
31,14:2
31,15:2
31,17:1
31,20:3
31,21:3
31,26:3
31,27:1
31,30:1
31,32:1
31,34:3
32,13:1
32,14:1
32,15:1
32,20:2
32,21:2
32,26:2
32,34:2
32,38:2
32,39:2
32,40:2
32,43:2
33,1:2
33,2:1
33,4:2
33,5:2
33,6:1
33,10:1
33,11:2
33,13:3
33,14:3
33,15:3
33,17:2
33,19:1
33,20:4
33,21:4
33,26:4
33,27:2
33,28:1
33,29:1
33,30:2
33,31:1
33,32:2
33,34:4
33,38:4
33,39:4
33,40:4
35,1:1
35,4:1
35,5:1
35,11:1
35,13:2
35,14:2
35,15:2
35,17:1
35,20:3
35,21:3
35,26:3
35,27:1
35,30:1
35,32:1
35,34:3
35,38:3
35,39:3
35,40:3
36,1:2
36,2:1
36,4:2
36,5:2
36,6:1
36,10:1
36,11:2
36,13:3
36,14:3
36,15:3
36,17:2
36,19:1
36,20:4
36,21:4
36,26:4
36,27:2
36,28:1
36,29:1
36,30:2
36,31:1
36,32:2
36,34:4
36,35:1
37,1:3
37,2:2
37,4:3
37,5:3
37,6:2
37,7:1
37,8:1
37,9:1
37,10:2
37,11:3
37,12:1
37,13:4
37,14:4
37,15:4
37,17:3
37,19:2
37,20:5
37,21:5
37,22:1
37,23:1
37,24:1
37,25:1
37,26:5
37,27:3
37,28:2
37,29:2
37,30:3
37,31:2
37,32:3
37,33:1
37,34:5
37,35:2
37,36:1
37,38:5
41,1:3
41,2:2
41,4:3
41,5:3
41,6:2
41,7:1
41,8:1
41,9:1
41,10:2
41,11:3
41,12:1
41,13:4
41,14:4
41,15:4
41,17:3
41,19:2
41,20:5
41,21:5
41,22:1
41,23:1
41,24:1
41,25:1
41,26:5
41,27:3
41,28:2
41,29:2
41,30:3
41,31:2
41,32:3
41,33:1
41,34:5
41,35:2
41,36:1
41,38:5
41,39:5
41,40:5
42,1:3
42,2:2
42,4:3
42,5:3
42,6:2
42,7:1
42,8:1
42,9:1
42,10:2
42,11:3
42,12:1
42,13:4
42,14:4
42,15:4
42,17:3
42,19:2
42,20:5
42,21:5
42,22:1
42,23:1
42,24:1
42,25:1
42,26:5
42,27:3
42,28:2
42,29:2
42,30:3
42,31:2
42,32:3
42,33:1
42,34:5
42,35:2
42,36:1
42,38:5
42,39:5
42,40:5
44,1:3
44,2:2
44,4:3
44,5:3
44,6:2
44,7:1
44,8:1
44,9:1
44,10:2
44,11:3
44,12:1
44,13:4
44,14:4
44,15:4
44,17:3
44,19:2
44,20:5
44,21:5
44,22:1
44,23:1
44,24:1
44,25:1
44,26:5
44,27:3
44,28:2
44,29:2
44,30:3
44,31:2
44,32:3
44,33:1
44,34:5
44,35:2
44,36:1
44,38:5
44,39:5
44,40:5
44,43:5
46,1:3
46,2:2
46,4:3
46,5:3
46,6:2
46,7:1
46,8:1
46,9:1
46,10:2
46,11:3
46,12:1
46,13:4
46,14:4
46,15:4
46,17:3
46,19:2
46,20:5
46,21:5
46,22:1
46,23:1
46,24:1
46,25:1
46,26:5
46,27:3
46,28:2
46,29:2
46,30:3
46,31:2
46,32:3
46,33:1
46,34:5
46,35:2
46,36:1
46,38:5
46,39:5
46,40:5
46,43:5
46,45:5
46,48:1
46,49:1
47,1:3
47,2:2
47,4:3
47,5:3
47,6:2
47,7:1
47,8:1
47,9:1
47,10:2
47,11:3
47,12:1
47,13:4
47,14:4
47,15:4
47,17:3
47,19:2
47,20:5
47,21:5
47,22:1
47,23:1
47,24:1
47,25:1
47,26:5
47,27:3
47,28:2
47,29:2
47,30:3
47,31:2
47,32:3
47,33:1
47,34:5
47,35:2
47,36:1
47,38:5
47,39:5
47,40:5
47,43:5
47,45:5
47,48:1
47,49:1
48,1:2
48,2:1
48,4:2
48,5:2
48,6:1
48,10:1
48,11:2
48,13:3
48,14:3
48,15:3
48,17:2
48,19:1
48,20:4
48,21:4
48,26:4
48,27:2
48,28:1
48,29:1
48,30:2
48,31:1
48,32:2
48,34:4
48,35:1
48,38:4
48,39:4
48,40:4
48,43:4
48,45:4
48,52:2
48,53:2
49,1:2
49,2:1
49,4:2
49,5:2
49,6:1
49,10:1
49,11:2
49,13:3
49,14:3
49,15:3
49,17:2
49,19:1
49,20:4
49,21:4
49,26:4
49,27:2
49,28:1
49,29:1
49,30:2
49,31:1
49,32:2
49,34:4
49,35:1
49,38:4
49,39:4
49,40:4
49,43:4
49,45:4
49,52:2
49,53:2
50,1:3
50,2:2
50,4:3
50,5:3
50,6:2
50,7:1
50,8:1
50,9:1
50,10:2
50,11:3
50,12:1
50,13:4
50,14:4
50,15:4
50,17:3
50,19:2
50,20:5
50,21:5
50,22:1
50,23:1
50,24:1
50,25:1
50,26:5
50,27:3
50,28:2
50,29:2
50,30:3
50,31:2
50,32:3
50,33:1
50,34:5
50,35:2
50,36:1
50,38:5
50,39:5
50,40:5
50,43:5
50,45:5
50,48:1
50,49:1
50,52:3
50,53:3
50,54:1
50,55:1
51,1:3
51,2:2
51,4:3
51,5:3
51,6:2
51,7:1
51,8:1
51,9:1
51,10:2
51,11:3
51,12:1
51,13:4
51,14:4
51,15:4
51,17:3
51,19:2
51,20:5
51,21:5
51,22:1
51,23:1
51,24:1
51,25:1
51,26:5
51,27:3
51,28:2
51,29:2
51,30:3
51,31:2
51,32:3
51,33:1
51,34:5
51,35:2
51,36:1
51,38:5
51,39:5
51,40:5
51,43:5
51,45:5
51,48:1
51,49:1
52,13:1
52,14:1
52,15:1
52,20:2
52,21:2
52,26:2
52,34:2
52,38:2
52,39:2
52,40:2
52,43:2
52,45:2
53,13:1
53,14:1
53,15:1
53,20:2
53,21:2
53,26:2
53,34:2
53,38:2
53,39:2
53,40:2
53,43:2
53,45:2
54,1:2
54,2:1
54,4:2
54,5:2
54,6:1
54,10:1
54,11:2
54,13:3
54,14:3
54,15:3
54,17:2
54,19:1
54,20:4
54,21:4
54,26:4
54,27:2
54,28:1
54,29:1
54,30:2
54,31:1
54,32:2
54,34:4
54,35:1
54,38:4
54,39:4
54,40:4
54,43:4
54,45:4
54,52:2
54,53:2
55,1:2
55,2:1
55,4:2
55,5:2
55,6:1
55,10:1
55,11:2
55,13:3
55,14:3
55,15:3
55,17:2
55,19:1
55,20:4
55,21:4
55,26:4
55,27:2
55,28:1
55,29:1
55,30:2
55,31:1
55,32:2
55,34:4
55,35:1
55,38:4
55,39:4
55,40:4
55,43:4
55,45:4
55,52:2
55,53:2
56,1:3
56,2:2
56,4:3
56,5:3
56,6:2
56,7:1
56,8:1
56,9:1
56,10:2
56,11:3
56,12:1
56,13:4
56,14:4
56,15:4
56,17:3
56,19:2
56,20:5
56,21:5
56,22:1
56,23:1
56,24:1
56,25:1
56,26:5
56,27:3
56,28:2
56,29:2
56,30:3
56,31:2
56,32:3
56,33:1
56,34:5
56,35:2
56,36:1
56,38:5
56,39:5
56,40:5
56,43:5
56,45:5
56,48:1
56,49:1
56,52:3
56,53:3
56,54:1
56,55:1
57,1:3
57,2:2
57,4:3
57,5:3
57,6:2
57,7:1
57,8:1
57,9:1
57,10:2
57,11:3
57,12:1
57,13:4
57,14:4
57,15:4
57,17:3
57,19:2
57,20:5
57,21:5
57,22:1
57,23:1
57,24:1
57,25:1
57,26:5
57,27:3
57,28:2
57,29:2
57,30:3
57,31:2
57,32:3
57,33:1
57,34:5
57,35:2
57,36:1
57,38:5
57,39:5
57,40:5
57,43:5
57,45:5
57,48:1
57,49:1
57,52:3
57,53:3
57,54:1
57,55:1
58,1:3
58,2:2
58,4:3
58,5:3
58,6:2
58,7:1
58,8:1
58,9:1
58,10:2
58,11:3
58,12:1
58,13:4
58,14:4
58,15:4
58,17:3
58,19:2
58,20:5
58,21:5
58,22:1
58,23:1
58,24:1
58,25:1
58,26:5
58,27:3
58,28:2
58,29:2
58,30:3
58,31:2
58,32:3
58,33:1
58,34:5
58,35:2
58,36:1
58,38:5
58,39:5
58,40:5
58,43:5
58,45:5
58,48:1
58,49:1
58,52:3
58,53:3
58,54:1
58,55:1

<end>

<optimal SALBP-1 value>
20


<rand seed>
467321153

<Lower Bounds>
Lm1=19
Lms1=19
Lm2=13
Lm3=13
Lm4=19
Best=19

<Optimal Stations (Iterations: 10)>
24
